Copyright (C) 2013-2015, Filipe Brandao
Build (method = -2)
  #dp: 1961
  Step-3' Graph: 61 vertices and 728 arcs (0.00s)
  Step-4' Graph: 56 vertices and 718 arcs (0.00s)
  #V4/#V3 = 0.92
  #A4/#A3 = 0.99
Ready! (0.00s)
Optimize a model with 114 rows, 719 columns and 2049 nonzeros
Found heuristic solution: objective 142
Presolve removed 37 rows and 63 columns
Presolve time: 0.01s
Presolved: 77 rows, 656 columns, 1860 nonzeros
Variable types: 0 continuous, 656 integer (91 binary)
Optimize a model with 77 rows, 656 columns and 1860 nonzeros
Presolved: 77 rows, 656 columns, 1860 nonzeros

Root barrier log...

Ordering time: 0.00s

Barrier statistics:
 AA' NZ     : 8.790e+02
 Factor NZ  : 1.835e+03
 Factor Ops : 5.608e+04 (less than 1 second per iteration)
 Threads    : 1

                  Objective                Residual
Iter       Primal          Dual         Primal    Dual     Compl     Time
   0   1.23445187e+03 -3.73007445e+03  5.70e+03 1.37e-01  2.36e+01     0s
   1   3.65414410e+02 -1.59756883e+03  5.80e+02 5.55e-16  3.31e+00     0s
   2   1.91158118e+02 -3.36684403e+02  4.33e+01 2.89e-15  4.85e-01     0s
   3   1.39824613e+02 -7.96289394e+01  2.58e+00 1.44e-15  1.68e-01     0s
   4   1.18768640e+02  2.18129544e+01  5.21e-01 4.51e-16  7.31e-02     0s
   5   1.06979134e+02  5.21917900e+01  1.36e-01 3.33e-16  4.11e-02     0s
   6   1.02657544e+02  8.97490867e+01  6.14e-02 3.33e-16  9.69e-03     0s
   7   1.00829360e+02  9.56101576e+01  1.74e-02 2.75e-16  3.91e-03     0s
   8   1.00104248e+02  9.74519731e+01  6.39e-03 3.61e-16  1.99e-03     0s
   9   9.96807570e+01  9.86295527e+01  1.71e-03 3.81e-16  7.87e-04     0s
  10   9.95273408e+01  9.93424415e+01  1.44e-04 3.27e-16  1.38e-04     0s
  11   9.95002480e+01  9.94991179e+01  3.21e-07 3.27e-16  8.46e-07     0s
  12   9.95000002e+01  9.94999991e+01  1.04e-12 3.33e-16  8.46e-10     0s
  13   9.95000000e+01  9.95000000e+01  3.62e-13 4.44e-16  9.64e-16     0s

Barrier solved model in 13 iterations and 0.00 seconds
Optimal objective 9.95000000e+01


Root relaxation: objective 9.950000e+01, 169 iterations, 0.01 seconds

    Nodes    |    Current Node    |     Objective Bounds      |     Work
 Expl Unexpl |  Obj  Depth IntInf | Incumbent    BestBd   Gap | It/Node Time

     0     0   99.50000    0    3  142.00000   99.50000  29.9%     -    0s
H    0     0                     100.0000000   99.50000  0.50%     -    0s

Explored 0 nodes (212 simplex iterations) in 0.01 seconds
Thread count was 1 (of 4 available processors)

Optimal solution found (tolerance 0.00e+00)
Best objective 1.000000000000e+02, best bound 1.000000000000e+02, gap 0.0%
Preprocessing time: 0.00 seconds
Gurobi run time: 0.01 seconds
Total run time: 0.01 seconds
Objective: 100
Solution:
3 x [i=1]
3 x [i=2, i=57]
2 x [i=3, i=57]
1 x [i=3, i=58]
1 x [i=4]
3 x [i=4, i=56]
5 x [i=5, i=55]
2 x [i=6, i=55]
1 x [i=7, i=53]
2 x [i=8, i=52]
4 x [i=9, i=51]
1 x [i=10, i=49]
2 x [i=10, i=50]
2 x [i=10, i=52]
2 x [i=11, i=48]
1 x [i=12, i=47]
5 x [i=13, i=46]
2 x [i=14, i=45]
1 x [i=15, i=44]
1 x [i=15, i=47]
3 x [i=16, i=43]
3 x [i=16, i=45]
2 x [i=17, i=42]
2 x [i=18, i=40]
2 x [i=18, i=41]
2 x [i=19, i=39]
3 x [i=20, i=38]
2 x [i=21, i=37]
3 x [i=22, i=37]
1 x [i=23, i=35]
1 x [i=24, i=34]
3 x [i=24, i=35]
6 x [i=25, i=33]
4 x [i=26, i=32]
1 x [i=26, i=33]
1 x [i=27, i=31]
3 x [i=27, i=34]
3 x [i=28, i=30]
2 x [i=29, i=29]
1 x [i=30]
2 x [i=30, i=31]
1 x [i=30, i=30]
1 x [i=36, i=49, i=54]
1 x [i=37, i=47, i=53]
1 x [i=37, i=48, i=52]
2 x [i=42, i=42, i=53]
